c Reduced graph for GEOM120a_1 generated by Cyril Grelier
p edge 118 1406
e 1 2
e 1 3
e 1 5
e 1 6
e 1 7
e 1 8
e 1 10
e 1 11
e 1 14
e 1 15
e 1 16
e 1 17
e 1 23
e 1 24
e 1 29
e 1 30
e 1 34
e 1 37
e 1 39
e 1 40
e 1 46
e 1 47
e 1 48
e 1 55
e 1 58
e 1 59
e 1 61
e 1 62
e 1 66
e 1 70
e 1 71
e 1 84
e 1 99
e 1 100
e 1 113
e 2 3
e 2 5
e 2 6
e 2 7
e 2 8
e 2 10
e 2 11
e 2 14
e 2 15
e 2 16
e 2 17
e 2 23
e 2 29
e 2 30
e 2 34
e 2 37
e 2 39
e 2 40
e 2 46
e 2 47
e 2 48
e 2 50
e 2 55
e 2 58
e 2 59
e 2 61
e 2 62
e 2 66
e 2 70
e 2 71
e 2 99
e 2 100
e 2 113
e 3 5
e 3 6
e 3 7
e 3 8
e 3 10
e 3 11
e 3 14
e 3 15
e 3 16
e 3 17
e 3 23
e 3 24
e 3 29
e 3 30
e 3 36
e 3 37
e 3 39
e 3 46
e 3 47
e 3 55
e 3 58
e 3 59
e 3 62
e 3 70
e 3 71
e 3 81
e 3 84
e 3 91
e 3 102
e 3 108
e 3 109
e 3 111
e 4 5
e 4 6
e 4 8
e 4 9
e 4 14
e 4 18
e 4 24
e 4 25
e 4 27
e 4 31
e 4 36
e 4 41
e 4 42
e 4 43
e 4 44
e 4 49
e 4 51
e 4 56
e 4 57
e 4 60
e 4 63
e 4 65
e 4 67
e 4 76
e 4 78
e 4 82
e 4 83
e 4 89
e 4 90
e 4 92
e 4 95
e 4 105
e 4 112
e 5 6
e 5 7
e 5 8
e 5 9
e 5 10
e 5 11
e 5 14
e 5 15
e 5 16
e 5 17
e 5 18
e 5 23
e 5 24
e 5 25
e 5 27
e 5 30
e 5 34
e 5 36
e 5 40
e 5 41
e 5 46
e 5 47
e 5 48
e 5 60
e 5 61
e 5 66
e 5 81
e 5 83
e 5 91
e 6 7
e 6 8
e 6 9
e 6 10
e 6 11
e 6 14
e 6 15
e 6 16
e 6 17
e 6 18
e 6 23
e 6 24
e 6 25
e 6 29
e 6 30
e 6 34
e 6 36
e 6 37
e 6 41
e 6 42
e 6 46
e 6 47
e 6 56
e 6 60
e 6 81
e 6 83
e 6 91
e 6 107
e 7 8
e 7 10
e 7 11
e 7 12
e 7 14
e 7 15
e 7 16
e 7 17
e 7 22
e 7 23
e 7 29
e 7 30
e 7 34
e 7 37
e 7 39
e 7 40
e 7 46
e 7 47
e 7 48
e 7 50
e 7 55
e 7 61
e 7 62
e 7 66
e 7 99
e 7 100
e 7 113
e 8 9
e 8 10
e 8 11
e 8 14
e 8 15
e 8 16
e 8 17
e 8 18
e 8 24
e 8 25
e 8 27
e 8 30
e 8 34
e 8 36
e 8 37
e 8 41
e 8 42
e 8 46
e 8 47
e 8 56
e 8 60
e 8 81
e 8 83
e 8 91
e 8 107
e 9 14
e 9 18
e 9 24
e 9 25
e 9 27
e 9 31
e 9 34
e 9 36
e 9 41
e 9 42
e 9 43
e 9 44
e 9 49
e 9 51
e 9 56
e 9 57
e 9 60
e 9 63
e 9 65
e 9 67
e 9 76
e 9 79
e 9 80
e 9 83
e 9 89
e 9 90
e 9 92
e 9 95
e 10 11
e 10 14
e 10 15
e 10 16
e 10 17
e 10 23
e 10 24
e 10 29
e 10 30
e 10 37
e 10 39
e 10 55
e 10 58
e 10 59
e 10 62
e 10 70
e 10 71
e 10 81
e 10 84
e 10 91
e 10 102
e 10 108
e 10 109
e 10 111
e 11 15
e 11 16
e 11 17
e 11 23
e 11 29
e 11 30
e 11 37
e 11 39
e 11 47
e 11 55
e 11 58
e 11 59
e 11 62
e 11 70
e 11 71
e 11 84
e 11 99
e 11 100
e 11 102
e 11 108
e 11 109
e 11 111
e 11 113
e 12 13
e 12 15
e 12 19
e 12 20
e 12 21
e 12 22
e 12 33
e 12 34
e 12 35
e 12 40
e 12 46
e 12 47
e 12 48
e 12 50
e 12 61
e 12 66
e 12 68
e 12 69
e 12 74
e 12 77
e 12 85
e 12 97
e 12 98
e 12 100
e 12 103
e 12 104
e 12 110
e 12 114
e 12 116
e 12 117
e 13 19
e 13 20
e 13 21
e 13 22
e 13 26
e 13 27
e 13 28
e 13 32
e 13 33
e 13 34
e 13 35
e 13 40
e 13 45
e 13 48
e 13 52
e 13 53
e 13 54
e 13 61
e 13 64
e 13 66
e 13 68
e 13 69
e 13 73
e 13 74
e 13 77
e 13 85
e 13 86
e 13 87
e 13 88
e 13 96
e 14 15
e 14 16
e 14 17
e 14 18
e 14 24
e 14 25
e 14 27
e 14 30
e 14 34
e 14 36
e 14 40
e 14 41
e 14 46
e 14 47
e 14 48
e 14 56
e 14 60
e 14 61
e 14 81
e 14 83
e 14 91
e 15 16
e 15 17
e 15 22
e 15 23
e 15 29
e 15 30
e 15 34
e 15 39
e 15 40
e 15 46
e 15 47
e 15 48
e 15 50
e 15 55
e 15 61
e 15 62
e 15 66
e 15 99
e 15 100
e 15 113
e 16 17
e 16 23
e 16 24
e 16 29
e 16 30
e 16 37
e 16 39
e 16 55
e 16 58
e 16 59
e 16 70
e 16 71
e 16 81
e 16 84
e 16 91
e 16 102
e 16 108
e 16 109
e 16 111
e 17 23
e 17 24
e 17 29
e 17 30
e 17 34
e 17 36
e 17 37
e 17 39
e 17 41
e 17 46
e 17 47
e 17 48
e 17 58
e 17 60
e 17 62
e 17 71
e 17 81
e 17 91
e 18 24
e 18 25
e 18 31
e 18 36
e 18 41
e 18 42
e 18 43
e 18 44
e 18 49
e 18 51
e 18 56
e 18 57
e 18 60
e 18 63
e 18 78
e 18 81
e 18 82
e 18 83
e 18 89
e 18 90
e 18 105
e 18 107
e 18 112
e 18 115
e 19 20
e 19 21
e 19 22
e 19 26
e 19 27
e 19 28
e 19 32
e 19 33
e 19 34
e 19 35
e 19 38
e 19 40
e 19 45
e 19 48
e 19 52
e 19 53
e 19 54
e 19 61
e 19 64
e 19 66
e 19 68
e 19 73
e 19 74
e 19 77
e 19 86
e 19 87
e 19 88
e 19 96
e 20 21
e 20 22
e 20 26
e 20 27
e 20 28
e 20 32
e 20 33
e 20 34
e 20 35
e 20 40
e 20 45
e 20 46
e 20 47
e 20 48
e 20 52
e 20 53
e 20 54
e 20 61
e 20 64
e 20 66
e 20 68
e 20 69
e 20 73
e 20 74
e 20 77
e 20 85
e 20 88
e 21 22
e 21 26
e 21 27
e 21 28
e 21 32
e 21 33
e 21 34
e 21 35
e 21 38
e 21 40
e 21 45
e 21 46
e 21 47
e 21 48
e 21 52
e 21 53
e 21 54
e 21 61
e 21 64
e 21 66
e 21 68
e 21 73
e 21 74
e 21 77
e 21 87
e 21 88
e 22 33
e 22 34
e 22 35
e 22 40
e 22 46
e 22 47
e 22 48
e 22 50
e 22 61
e 22 66
e 22 68
e 22 69
e 22 74
e 22 77
e 22 85
e 22 97
e 22 98
e 22 103
e 22 104
e 22 110
e 22 114
e 22 116
e 22 117
e 23 29
e 23 30
e 23 37
e 23 39
e 23 40
e 23 46
e 23 47
e 23 48
e 23 50
e 23 55
e 23 58
e 23 59
e 23 62
e 23 70
e 23 71
e 23 84
e 23 99
e 23 100
e 23 113
e 24 25
e 24 27
e 24 30
e 24 31
e 24 34
e 24 36
e 24 41
e 24 42
e 24 46
e 24 47
e 24 49
e 24 56
e 24 60
e 24 81
e 24 83
e 24 91
e 24 107
e 24 115
e 25 31
e 25 36
e 25 41
e 25 42
e 25 43
e 25 44
e 25 49
e 25 51
e 25 56
e 25 57
e 25 60
e 25 63
e 25 78
e 25 81
e 25 82
e 25 83
e 25 89
e 25 90
e 25 105
e 25 107
e 25 112
e 25 115
e 26 27
e 26 28
e 26 32
e 26 33
e 26 35
e 26 38
e 26 45
e 26 52
e 26 53
e 26 54
e 26 64
e 26 65
e 26 67
e 26 72
e 26 73
e 26 75
e 26 80
e 26 86
e 26 87
e 26 88
e 26 93
e 26 94
e 26 96
e 26 101
e 26 106
e 27 28
e 27 30
e 27 32
e 27 34
e 27 36
e 27 38
e 27 40
e 27 46
e 27 47
e 27 48
e 27 51
e 27 61
e 27 65
e 27 66
e 27 67
e 27 76
e 27 80
e 27 93
e 28 32
e 28 34
e 28 38
e 28 45
e 28 52
e 28 53
e 28 54
e 28 65
e 28 67
e 28 72
e 28 73
e 28 75
e 28 76
e 28 79
e 28 80
e 28 86
e 28 87
e 28 93
e 28 94
e 28 96
e 28 101
e 28 106
e 28 118
e 29 30
e 29 37
e 29 39
e 29 55
e 29 58
e 29 59
e 29 62
e 29 70
e 29 71
e 29 84
e 29 99
e 29 100
e 29 102
e 29 108
e 29 109
e 29 111
e 29 113
e 30 34
e 30 36
e 30 37
e 30 40
e 30 41
e 30 46
e 30 47
e 30 48
e 30 61
e 30 62
e 30 66
e 31 36
e 31 41
e 31 42
e 31 43
e 31 44
e 31 49
e 31 51
e 31 56
e 31 57
e 31 60
e 31 63
e 31 65
e 31 67
e 31 76
e 31 78
e 31 79
e 31 82
e 31 89
e 31 90
e 31 92
e 31 95
e 31 105
e 31 112
e 32 38
e 32 45
e 32 52
e 32 53
e 32 54
e 32 65
e 32 67
e 32 72
e 32 73
e 32 75
e 32 79
e 32 80
e 32 86
e 32 87
e 32 88
e 32 93
e 32 94
e 32 96
e 32 101
e 32 106
e 32 118
e 33 35
e 33 40
e 33 45
e 33 48
e 33 50
e 33 52
e 33 53
e 33 61
e 33 64
e 33 66
e 33 68
e 33 69
e 33 74
e 33 77
e 33 85
e 33 88
e 33 97
e 33 98
e 33 103
e 33 104
e 33 110
e 34 35
e 34 40
e 34 46
e 34 47
e 34 48
e 34 61
e 34 65
e 34 66
e 35 40
e 35 45
e 35 48
e 35 52
e 35 53
e 35 54
e 35 61
e 35 64
e 35 66
e 35 68
e 35 69
e 35 74
e 35 77
e 35 85
e 35 88
e 35 97
e 35 98
e 35 103
e 35 104
e 36 41
e 36 42
e 36 43
e 36 44
e 36 46
e 36 49
e 36 51
e 36 56
e 36 60
e 36 81
e 36 83
e 36 91
e 36 107
e 36 115
e 37 39
e 37 55
e 37 58
e 37 59
e 37 62
e 37 70
e 37 71
e 37 81
e 37 84
e 37 91
e 37 102
e 37 108
e 37 109
e 37 111
e 38 45
e 38 51
e 38 52
e 38 53
e 38 54
e 38 65
e 38 67
e 38 72
e 38 73
e 38 75
e 38 76
e 38 79
e 38 80
e 38 86
e 38 87
e 38 93
e 38 94
e 38 96
e 38 101
e 38 106
e 38 118
e 39 55
e 39 58
e 39 59
e 39 62
e 39 70
e 39 71
e 39 84
e 39 99
e 39 100
e 39 102
e 39 108
e 39 109
e 39 111
e 39 113
e 40 46
e 40 47
e 40 48
e 40 50
e 40 61
e 40 66
e 40 69
e 40 100
e 41 42
e 41 43
e 41 44
e 41 49
e 41 56
e 41 60
e 41 78
e 41 81
e 41 82
e 41 83
e 41 91
e 41 107
e 41 115
e 42 43
e 42 44
e 42 49
e 42 56
e 42 60
e 42 78
e 42 81
e 42 82
e 42 83
e 42 89
e 42 90
e 42 91
e 42 105
e 42 107
e 42 112
e 42 115
e 43 44
e 43 49
e 43 51
e 43 56
e 43 57
e 43 63
e 43 65
e 43 67
e 43 76
e 43 78
e 43 79
e 43 82
e 43 89
e 43 90
e 43 92
e 43 95
e 43 105
e 43 112
e 44 49
e 44 51
e 44 56
e 44 57
e 44 63
e 44 65
e 44 67
e 44 76
e 44 78
e 44 79
e 44 82
e 44 89
e 44 90
e 44 92
e 44 95
e 44 105
e 44 112
e 45 52
e 45 53
e 45 54
e 45 64
e 45 68
e 45 72
e 45 73
e 45 75
e 45 86
e 45 87
e 45 88
e 45 94
e 45 96
e 45 101
e 45 106
e 46 47
e 46 48
e 46 61
e 46 66
e 47 48
e 47 61
e 47 66
e 48 50
e 48 61
e 48 66
e 49 51
e 49 56
e 49 57
e 49 60
e 49 63
e 49 78
e 49 82
e 49 83
e 49 89
e 49 90
e 49 105
e 49 107
e 49 112
e 49 115
e 50 61
e 50 62
e 50 66
e 50 69
e 50 85
e 50 97
e 50 98
e 50 100
e 50 103
e 50 104
e 50 110
e 50 113
e 50 114
e 50 116
e 50 117
e 51 57
e 51 63
e 51 65
e 51 67
e 51 72
e 51 76
e 51 79
e 51 80
e 51 89
e 51 90
e 51 92
e 51 93
e 51 95
e 52 53
e 52 54
e 52 64
e 52 68
e 52 73
e 52 74
e 52 77
e 52 86
e 52 87
e 52 88
e 52 94
e 52 96
e 52 106
e 53 54
e 53 64
e 53 68
e 53 73
e 53 74
e 53 75
e 53 86
e 53 87
e 53 88
e 53 94
e 53 96
e 53 106
e 54 64
e 54 72
e 54 73
e 54 75
e 54 86
e 54 87
e 54 88
e 54 93
e 54 94
e 54 96
e 54 101
e 54 106
e 55 58
e 55 59
e 55 62
e 55 70
e 55 71
e 55 84
e 55 99
e 55 100
e 55 102
e 55 108
e 55 111
e 55 113
e 56 60
e 56 78
e 56 81
e 56 82
e 56 83
e 56 91
e 56 105
e 56 107
e 56 115
e 57 63
e 57 65
e 57 67
e 57 76
e 57 78
e 57 79
e 57 80
e 57 82
e 57 89
e 57 90
e 57 92
e 57 93
e 57 95
e 57 105
e 57 112
e 58 59
e 58 62
e 58 70
e 58 71
e 58 84
e 58 99
e 58 102
e 58 108
e 58 109
e 58 111
e 58 113
e 59 62
e 59 70
e 59 71
e 59 84
e 59 99
e 59 100
e 59 102
e 59 108
e 59 109
e 59 111
e 59 113
e 60 78
e 60 81
e 60 82
e 60 83
e 60 91
e 60 107
e 60 115
e 61 66
e 62 70
e 62 71
e 62 84
e 62 99
e 62 100
e 62 113
e 63 65
e 63 67
e 63 76
e 63 78
e 63 79
e 63 80
e 63 82
e 63 89
e 63 90
e 63 92
e 63 95
e 63 105
e 63 112
e 64 68
e 64 69
e 64 73
e 64 74
e 64 77
e 64 85
e 64 86
e 64 87
e 64 88
e 64 96
e 64 97
e 64 98
e 65 67
e 65 72
e 65 75
e 65 76
e 65 79
e 65 80
e 65 92
e 65 93
e 65 95
e 66 69
e 67 72
e 67 75
e 67 76
e 67 79
e 67 80
e 67 92
e 67 93
e 67 95
e 67 118
e 68 69
e 68 74
e 68 77
e 68 85
e 68 88
e 68 97
e 68 98
e 68 103
e 68 104
e 68 110
e 68 114
e 69 74
e 69 77
e 69 85
e 69 97
e 69 98
e 69 103
e 69 104
e 69 110
e 69 114
e 69 116
e 69 117
e 70 71
e 70 84
e 70 99
e 70 102
e 70 108
e 70 109
e 70 111
e 70 113
e 71 84
e 71 99
e 71 102
e 71 108
e 71 109
e 71 111
e 72 73
e 72 75
e 72 76
e 72 79
e 72 80
e 72 86
e 72 92
e 72 93
e 72 94
e 72 95
e 72 101
e 72 106
e 72 118
e 73 75
e 73 86
e 73 87
e 73 88
e 73 94
e 73 96
e 73 101
e 73 106
e 74 77
e 74 85
e 74 88
e 74 97
e 74 98
e 74 103
e 74 104
e 74 110
e 74 114
e 75 76
e 75 79
e 75 80
e 75 86
e 75 87
e 75 93
e 75 94
e 75 96
e 75 101
e 75 106
e 75 118
e 76 79
e 76 80
e 76 89
e 76 90
e 76 92
e 76 93
e 76 95
e 77 85
e 77 88
e 77 97
e 77 98
e 77 103
e 77 104
e 77 110
e 77 114
e 78 82
e 78 83
e 78 89
e 78 90
e 78 105
e 78 107
e 78 112
e 78 115
e 79 80
e 79 92
e 79 93
e 79 95
e 79 101
e 79 118
e 80 92
e 80 93
e 80 94
e 80 95
e 80 101
e 80 118
e 81 83
e 81 91
e 81 107
e 81 115
e 82 83
e 82 89
e 82 90
e 82 105
e 82 107
e 82 112
e 82 115
e 83 91
e 83 107
e 83 115
e 84 99
e 84 102
e 84 108
e 84 109
e 84 111
e 85 97
e 85 98
e 85 103
e 85 104
e 85 110
e 85 114
e 85 116
e 85 117
e 86 87
e 86 88
e 86 94
e 86 96
e 86 101
e 86 106
e 87 88
e 87 94
e 87 96
e 87 101
e 87 106
e 88 96
e 89 90
e 89 92
e 89 95
e 89 105
e 89 112
e 90 92
e 90 95
e 90 105
e 90 112
e 91 107
e 91 109
e 91 115
e 92 93
e 92 95
e 92 105
e 92 112
e 93 94
e 93 95
e 93 101
e 93 118
e 94 96
e 94 101
e 94 106
e 94 118
e 95 118
e 96 101
e 96 106
e 97 98
e 97 103
e 97 104
e 97 110
e 97 114
e 97 116
e 97 117
e 98 103
e 98 104
e 98 110
e 98 114
e 98 116
e 98 117
e 99 100
e 99 102
e 99 113
e 100 113
e 100 116
e 100 117
e 101 106
e 101 118
e 102 108
e 102 109
e 102 111
e 103 104
e 103 110
e 103 114
e 103 116
e 103 117
e 104 110
e 104 114
e 104 116
e 104 117
e 105 112
e 106 118
e 107 115
e 108 109
e 108 111
e 109 111
e 110 114
e 110 116
e 110 117
e 114 116
e 114 117
e 116 117
